
(set-logic ALL) 

(declare-datatype MyList ((Nil) (Cons (head Real) (tail MyList)) )) 
(declare-fun l0 () MyList) 
(declare-fun l1 () MyList) 
(declare-fun l2 () MyList) 
(declare-fun l3 () MyList) 
(declare-fun i0 () Real) 
(declare-fun i1 () Real) 
(assert (= l3 Nil) )
(assert (or (is-Nil l3) (is-Cons Nil) (= l1 Nil) (is-Nil l1)) )
(assert (= l3 l2) )
(assert (not (= l2 l3)) )
(assert (is-Nil l2) )
(assert (or (= l3 l0) (= l3 Nil)) )
(assert (is-Nil l2) )
(assert (is-Cons Nil) )
(check-sat)
